7 200
0 0 100 100 0 0 1501 0 0 0
1 266 56 59 30 60 329 90 0 308
2 165 53 59 20 122 368 90 0 79
3 146 55 64 30 291 570 90 0 268
4 308 53 61 -30 198 477 90 266 0
5 79 53 67 -20 482 757 90 165 0
6 268 50 67 -30 374 679 90 146 0

